desiredZ=[1];
nNurses = 256;
hours = 96;
demand = [36 40 7 36 48 0 46 18 48 21 23 16 25 34 35 33 55 43 14 6 59 22 58 27 55 44 59 51 30 7 49 52 54 63 43 30 5 28 54 46 11 1 23 39 14 59 17 54 21 31 10 61 14 58 20 20 25 58 16 52 57 50 27 8 46 32 42 45 55 57 24 50 56 11 60 60 43 1 52 57 11 44 53 61 40 1 14 56 29 13 6 31 57 53 27 42];
minHours = 1;
maxHours = 31;
maxConsec = 24;
maxPresence = 47;